p cnf 412 698
49 61 16 76 0
49 61 16 -76 0
70 -50 -64 77 0
70 -50 -64 -77 0
-70 -68 2 78 0
-70 -68 2 -78 0
11 -39 64 79 0
11 -39 64 -79 0
-35 -4 -58 80 0
-35 -4 -58 -80 0
-29 -38 -24 81 0
-29 -38 -24 -81 0
-3 -49 -30 82 0
-3 -49 -30 -82 0
-65 -58 -63 83 0
-65 -58 -63 -83 0
-72 67 19 84 0
-72 67 19 -84 0
-62 43 22 85 0
-62 43 22 -85 0
7 62 49 86 0
7 62 49 -86 0
-11 33 -75 87 0
-11 33 -75 -87 0
36 13 45 88 0
36 13 45 -88 0
4 -75 17 89 0
4 -75 17 -89 0
-40 47 68 90 0
-40 47 68 -90 0
-72 -22 -12 91 0
-72 -22 -12 -91 0
-72 62 1 92 0
-72 62 1 -92 0
59 63 -37 93 0
59 63 -37 -93 0
-54 15 40 94 0
-54 15 40 -94 0
19 -2 71 95 0
19 -2 71 -95 0
-36 60 32 96 0
-36 60 32 -96 0
16 25 70 97 0
16 25 70 -97 0
39 5 9 98 0
39 5 9 -98 0
41 12 -34 99 0
41 12 -34 -99 0
30 26 -72 100 0
30 26 -72 -100 0
-35 -73 -44 101 0
-35 -73 -44 -101 0
-75 60 -22 102 0
-75 60 -22 -102 0
16 -40 48 103 0
16 -40 48 -103 0
43 5 19 104 0
43 5 19 -104 0
-71 -39 50 105 0
-71 -39 50 -105 0
52 23 -9 106 0
52 23 -9 -106 0
-17 14 -39 107 0
-17 14 -39 -107 0
-7 -23 -3 108 0
-7 -23 -3 -108 0
61 14 -47 109 0
61 14 -47 -109 0
29 10 20 110 0
29 10 20 -110 0
15 -53 -31 111 0
15 -53 -31 -111 0
-2 -14 -59 112 0
-2 -14 -59 -112 0
4 -59 -15 113 0
4 -59 -15 -113 0
49 25 75 114 0
49 25 75 -114 0
1 -56 24 115 0
1 -56 24 -115 0
-28 74 4 116 0
-28 74 4 -116 0
28 -23 -16 117 0
28 -23 -16 -117 0
3 -66 52 118 0
3 -66 52 -118 0
3 -46 -39 119 0
3 -46 -39 -119 0
-16 66 48 120 0
-16 66 48 -120 0
-66 39 -30 121 0
-66 39 -30 -121 0
71 -49 -73 122 0
71 -49 -73 -122 0
-3 63 -51 123 0
-3 63 -51 -123 0
69 7 19 124 0
69 7 19 -124 0
-24 -25 75 125 0
-24 -25 75 -125 0
-28 -55 -49 126 0
-28 -55 -49 -126 0
33 -45 44 127 0
33 -45 44 -127 0
-16 58 17 128 0
-16 58 17 -128 0
-39 -31 28 129 0
-39 -31 28 -129 0
-65 12 -62 130 0
-65 12 -62 -130 0
-75 36 31 131 0
-75 36 31 -131 0
44 51 50 132 0
44 51 50 -132 0
-41 21 -12 133 0
-41 21 -12 -133 0
2 50 -3 134 0
2 50 -3 -134 0
-66 21 3 135 0
-66 21 3 -135 0
-28 -10 -46 136 0
-28 -10 -46 -136 0
63 -26 -39 137 0
63 -26 -39 -137 0
66 -3 65 138 0
66 -3 65 -138 0
-50 62 51 139 0
-50 62 51 -139 0
-43 -7 27 140 0
-43 -7 27 -140 0
55 -11 47 141 0
55 -11 47 -141 0
-14 57 55 142 0
-14 57 55 -142 0
21 10 -11 143 0
21 10 -11 -143 0
66 -61 38 144 0
66 -61 38 -144 0
-13 -18 50 145 0
-13 -18 50 -145 0
8 -26 -56 146 0
8 -26 -56 -146 0
59 -35 -46 147 0
59 -35 -46 -147 0
12 73 1 148 0
12 73 1 -148 0
-7 -68 -71 149 0
-7 -68 -71 -149 0
49 13 -5 150 0
49 13 -5 -150 0
54 16 -9 151 0
54 16 -9 -151 0
-28 1 -23 152 0
-28 1 -23 -152 0
-64 14 -73 153 0
-64 14 -73 -153 0
-74 42 -68 154 0
-74 42 -68 -154 0
-56 60 4 155 0
-56 60 4 -155 0
-43 61 -28 156 0
-43 61 -28 -156 0
-40 -47 -45 157 0
-40 -47 -45 -157 0
-62 32 60 158 0
-62 32 60 -158 0
-59 20 -62 159 0
-59 20 -62 -159 0
-42 -68 -57 160 0
-42 -68 -57 -160 0
58 -20 -50 161 0
58 -20 -50 -161 0
55 36 40 162 0
55 36 40 -162 0
-71 -10 -41 163 0
-71 -10 -41 -163 0
-1 53 5 164 0
-1 53 5 -164 0
-60 -70 -11 165 0
-60 -70 -11 -165 0
30 22 8 166 0
30 22 8 -166 0
73 11 -39 167 0
73 11 -39 -167 0
46 31 -72 168 0
46 31 -72 -168 0
73 -12 -43 169 0
73 -12 -43 -169 0
21 59 65 170 0
21 59 65 -170 0
19 -53 51 171 0
19 -53 51 -171 0
-30 55 -18 172 0
-30 55 -18 -172 0
-55 -63 9 173 0
-55 -63 9 -173 0
42 -72 32 174 0
42 -72 32 -174 0
-4 -19 14 175 0
-4 -19 14 -175 0
-22 68 -15 176 0
-22 68 -15 -176 0
4 -49 -51 177 0
4 -49 -51 -177 0
75 -22 -55 178 0
75 -22 -55 -178 0
-28 -40 -49 179 0
-28 -40 -49 -179 0
15 -52 -66 180 0
15 -52 -66 -180 0
-66 -33 6 181 0
-66 -33 6 -181 0
67 -26 -53 182 0
67 -26 -53 -182 0
13 15 24 183 0
13 15 24 -183 0
47 52 50 184 0
47 52 50 -184 0
-45 -2 -13 185 0
-45 -2 -13 -185 0
-64 37 -11 186 0
-64 37 -11 -186 0
-71 16 14 187 0
-71 16 14 -187 0
-18 -41 21 188 0
-18 -41 21 -188 0
42 -32 10 189 0
42 -32 10 -189 0
-39 32 36 190 0
-39 32 36 -190 0
-30 19 -43 191 0
-30 19 -43 -191 0
-28 -9 7 192 0
-28 -9 7 -192 0
-47 -75 67 193 0
-47 -75 67 -193 0
7 16 -34 194 0
7 16 -34 -194 0
-62 -35 29 195 0
-62 -35 29 -195 0
68 8 -2 196 0
68 8 -2 -196 0
60 28 75 197 0
60 28 75 -197 0
-73 -9 34 198 0
-73 -9 34 -198 0
-14 56 34 199 0
-14 56 34 -199 0
-41 66 -71 200 0
-41 66 -71 -200 0
29 -22 67 201 0
29 -22 67 -201 0
-24 -39 -64 202 0
-24 -39 -64 -202 0
57 16 -51 203 0
57 16 -51 -203 0
10 68 37 204 0
10 68 37 -204 0
4 25 72 205 0
4 25 72 -205 0
54 75 57 206 0
54 75 57 -206 0
-71 49 29 207 0
-71 49 29 -207 0
46 3 -27 208 0
46 3 -27 -208 0
-9 -43 53 209 0
-9 -43 53 -209 0
-48 59 -31 210 0
-48 59 -31 -210 0
70 -39 -51 211 0
70 -39 -51 -211 0
22 -21 9 212 0
22 -21 9 -212 0
-52 44 46 213 0
-52 44 46 -213 0
-6 44 9 214 0
-6 44 9 -214 0
-23 8 47 215 0
-23 8 47 -215 0
61 -19 49 216 0
61 -19 49 -216 0
17 -67 42 217 0
17 -67 42 -217 0
44 -49 -53 218 0
44 -49 -53 -218 0
-45 50 -23 219 0
-45 50 -23 -219 0
-69 -48 54 220 0
-69 -48 54 -220 0
51 -26 -21 221 0
51 -26 -21 -221 0
46 3 -57 222 0
46 3 -57 -222 0
-21 71 -27 223 0
-21 71 -27 -223 0
-52 54 -46 224 0
-52 54 -46 -224 0
46 -26 44 225 0
46 -26 44 -225 0
-27 -42 34 226 0
-27 -42 34 -226 0
37 -36 -22 227 0
37 -36 -22 -227 0
72 -69 -45 228 0
72 -69 -45 -228 0
-20 -43 -33 229 0
-20 -43 -33 -229 0
62 12 15 230 0
62 12 15 -230 0
-38 62 47 231 0
-38 62 47 -231 0
16 71 -73 232 0
16 71 -73 -232 0
11 38 56 233 0
11 38 56 -233 0
-54 -72 -67 234 0
-54 -72 -67 -234 0
-31 50 70 235 0
-31 50 70 -235 0
23 73 47 236 0
23 73 47 -236 0
-34 -27 -6 237 0
-34 -27 -6 -237 0
-7 52 -14 238 0
-7 52 -14 -238 0
21 65 39 239 0
21 65 39 -239 0
-67 -65 -52 240 0
-67 -65 -52 -240 0
62 72 60 241 0
62 72 60 -241 0
-42 49 48 242 0
-42 49 48 -242 0
-51 -58 37 243 0
-51 -58 37 -243 0
-59 58 -42 244 0
-59 58 -42 -244 0
-62 -6 21 245 0
-62 -6 21 -245 0
-36 -52 67 246 0
-36 -52 67 -246 0
36 41 -48 247 0
36 41 -48 -247 0
-31 61 37 248 0
-31 61 37 -248 0
70 7 13 249 0
70 7 13 -249 0
6 64 34 250 0
6 64 34 -250 0
33 -73 -66 251 0
33 -73 -66 -251 0
30 27 23 252 0
30 27 23 -252 0
56 -65 -18 253 0
56 -65 -18 -253 0
-47 52 -48 254 0
-47 52 -48 -254 0
-12 -19 39 255 0
-12 -19 39 -255 0
-60 1 -73 256 0
-60 1 -73 -256 0
-32 -54 -16 257 0
-32 -54 -16 -257 0
12 -35 40 258 0
12 -35 40 -258 0
-71 23 73 259 0
-71 23 73 -259 0
-18 -19 -29 260 0
-18 -19 -29 -260 0
-57 48 73 261 0
-57 48 73 -261 0
-43 54 -75 262 0
-43 54 -75 -262 0
-33 -45 -14 263 0
-33 -45 -14 -263 0
18 -70 14 264 0
18 -70 14 -264 0
-26 57 38 265 0
-26 57 38 -265 0
-52 -18 74 266 0
-52 -18 74 -266 0
-70 40 1 267 0
-70 40 1 -267 0
-49 -54 3 268 0
-49 -54 3 -268 0
-53 68 72 269 0
-53 68 72 -269 0
-11 34 -17 270 0
-11 34 -17 -270 0
-74 64 -71 271 0
-74 64 -71 -271 0
-19 -32 -27 272 0
-19 -32 -27 -272 0
33 -55 -62 273 0
33 -55 -62 -273 0
1 54 -30 274 0
1 54 -30 -274 0
-42 30 13 275 0
-42 30 13 -275 0
42 -4 9 276 0
42 -4 9 -276 0
-36 28 47 277 0
-36 28 47 -277 0
-61 -40 -3 278 0
-61 -40 -3 -278 0
-12 -49 -39 279 0
-12 -49 -39 -279 0
7 23 20 280 0
7 23 20 -280 0
-44 18 -40 281 0
-44 18 -40 -281 0
-8 -42 -39 282 0
-8 -42 -39 -282 0
55 -13 -65 283 0
55 -13 -65 -283 0
39 33 -13 284 0
39 33 -13 -284 0
12 -37 71 285 0
12 -37 71 -285 0
62 -7 -27 286 0
62 -7 -27 -286 0
-19 -62 -7 287 0
-19 -62 -7 -287 0
45 -36 -67 288 0
45 -36 -67 -288 0
9 27 21 289 0
9 27 21 -289 0
45 59 6 290 0
45 59 6 -290 0
63 30 43 291 0
63 30 43 -291 0
32 -70 -15 292 0
32 -70 -15 -292 0
59 -11 61 293 0
59 -11 61 -293 0
-26 -45 -47 294 0
-26 -45 -47 -294 0
27 -51 63 295 0
27 -51 63 -295 0
15 28 -46 296 0
15 28 -46 -296 0
-60 30 -68 297 0
-60 30 -68 -297 0
-57 16 47 298 0
-57 16 47 -298 0
-25 41 -53 299 0
-25 41 -53 -299 0
-53 50 20 300 0
-53 50 20 -300 0
44 -17 45 301 0
44 -17 45 -301 0
-68 28 -35 302 0
-68 28 -35 -302 0
47 8 -56 303 0
47 8 -56 -303 0
26 31 -36 304 0
26 31 -36 -304 0
-47 -5 33 305 0
-47 -5 33 -305 0
-9 13 51 306 0
-9 13 51 -306 0
58 19 -48 307 0
58 19 -48 -307 0
-57 -50 7 308 0
-57 -50 7 -308 0
-33 19 -44 309 0
-33 19 -44 -309 0
51 -68 -75 310 0
51 -68 -75 -310 0
43 -69 57 311 0
43 -69 57 -311 0
39 -30 27 312 0
39 -30 27 -312 0
10 -29 -5 313 0
10 -29 -5 -313 0
-29 24 16 314 0
-29 24 16 -314 0
68 30 67 315 0
68 30 67 -315 0
-44 -7 16 316 0
-44 -7 16 -316 0
26 -8 51 317 0
26 -8 51 -317 0
-46 -8 11 318 0
-46 -8 11 -318 0
15 -23 -24 319 0
15 -23 -24 -319 0
-4 32 14 320 0
-4 32 14 -320 0
-30 -2 35 321 0
-30 -2 35 -321 0
-70 -15 -20 322 0
-70 -15 -20 -322 0
-51 21 7 323 0
-51 21 7 -323 0
69 21 -28 324 0
69 21 -28 -324 0
2 36 -24 325 0
2 36 -24 -325 0
43 62 -57 326 0
43 62 -57 -326 0
14 -27 61 327 0
14 -27 61 -327 0
-33 47 -57 328 0
-33 47 -57 -328 0
-44 -27 -9 329 0
-44 -27 -9 -329 0
62 -44 2 330 0
62 -44 2 -330 0
-66 26 -19 331 0
-66 26 -19 -331 0
18 -41 -2 332 0
18 -41 -2 -332 0
39 -32 45 333 0
39 -32 45 -333 0
8 38 -28 334 0
8 38 -28 -334 0
-56 20 40 335 0
-56 20 40 -335 0
15 -20 50 336 0
15 -20 50 -336 0
8 10 -43 337 0
8 10 -43 -337 0
-7 -52 -73 338 0
-7 -52 -73 -338 0
53 5 -30 339 0
53 5 -30 -339 0
-1 -2 7 340 0
-1 -2 7 -340 0
64 73 -55 341 0
64 73 -55 -341 0
-39 -56 -6 342 0
-39 -56 -6 -342 0
55 -45 46 343 0
55 -45 46 -343 0
8 -46 -68 344 0
8 -46 -68 -344 0
-14 -67 62 345 0
-14 -67 62 -345 0
42 48 -3 346 0
42 48 -3 -346 0
-44 41 29 347 0
-44 41 29 -347 0
-22 68 66 348 0
-22 68 66 -348 0
29 -31 -2 349 0
29 -31 -2 -349 0
-1 57 58 350 0
-1 57 58 -350 0
9 3 5 351 0
9 3 5 -351 0
59 50 -48 352 0
59 50 -48 -352 0
34 45 54 353 0
34 45 54 -353 0
-55 65 33 354 0
-55 65 33 -354 0
48 -11 58 355 0
48 -11 58 -355 0
-63 7 20 356 0
-63 7 20 -356 0
74 1 47 357 0
74 1 47 -357 0
-47 69 12 358 0
-47 69 12 -358 0
50 20 -46 359 0
50 20 -46 -359 0
3 -41 -28 360 0
3 -41 -28 -360 0
20 -44 65 361 0
20 -44 65 -361 0
-11 -62 -17 362 0
-11 -62 -17 -362 0
16 -47 -34 363 0
16 -47 -34 -363 0
40 -16 -9 364 0
40 -16 -9 -364 0
56 48 -4 365 0
56 48 -4 -365 0
-53 26 -11 366 0
-53 26 -11 -366 0
-58 48 -59 367 0
-58 48 -59 -367 0
-39 -46 -30 368 0
-39 -46 -30 -368 0
-62 -38 -12 369 0
-62 -38 -12 -369 0
-34 27 31 370 0
-34 27 31 -370 0
5 -12 62 371 0
5 -12 62 -371 0
-13 37 72 372 0
-13 37 72 -372 0
55 -75 -73 373 0
55 -75 -73 -373 0
6 -59 32 374 0
6 -59 32 -374 0
75 -13 -31 375 0
75 -13 -31 -375 0
-66 -55 -2 376 0
-66 -55 -2 -376 0
-1 8 -18 377 0
-1 8 -18 -377 0
24 -58 -52 378 0
24 -58 -52 -378 0
-17 72 32 379 0
-17 72 32 -379 0
52 -14 -24 380 0
52 -14 -24 -380 0
-73 35 -53 381 0
-73 35 -53 -381 0
55 -13 -72 382 0
55 -13 -72 -382 0
-33 40 -25 383 0
-33 40 -25 -383 0
-71 -28 -30 384 0
-71 -28 -30 -384 0
21 56 -64 385 0
21 56 -64 -385 0
25 -60 41 386 0
25 -60 41 -386 0
4 9 -69 387 0
4 9 -69 -387 0
-49 51 -16 388 0
-49 51 -16 -388 0
72 -26 -1 389 0
72 -26 -1 -389 0
-68 -15 -23 390 0
-68 -15 -23 -390 0
44 67 32 391 0
44 67 32 -391 0
23 19 -36 392 0
23 19 -36 -392 0
67 -68 -30 393 0
67 -68 -30 -393 0
-55 64 10 394 0
-55 64 10 -394 0
-22 -8 -18 395 0
-22 -8 -18 -395 0
-17 -33 -51 396 0
-17 -33 -51 -396 0
75 65 10 397 0
75 65 10 -397 0
-14 73 21 398 0
-14 73 21 -398 0
27 -60 1 399 0
27 -60 1 -399 0
-40 62 24 400 0
-40 62 24 -400 0
401 402 403 404 0
401 402 403 -404 0
401 402 -403 404 0
401 402 -403 -404 0
401 -402 403 404 0
401 -402 403 -404 0
401 -402 -403 404 0
401 -402 -403 -404 0
-401 402 403 404 0
-401 402 403 -404 0
-401 402 -403 404 0
-401 402 -403 -404 0
-401 -402 403 404 0
-401 -402 403 -404 0
-401 -402 -403 404 0
-401 -402 -403 -404 0
405 406 407 408 0
405 406 407 -408 0
405 406 -407 408 0
405 406 -407 -408 0
405 -406 407 408 0
405 -406 407 -408 0
405 -406 -407 408 0
405 -406 -407 -408 0
-405 406 407 408 0
-405 406 407 -408 0
-405 406 -407 408 0
-405 406 -407 -408 0
-405 -406 407 408 0
-405 -406 407 -408 0
-405 -406 -407 408 0
-405 -406 -407 -408 0
409 410 411 412 0
409 410 411 -412 0
409 410 -411 412 0
409 410 -411 -412 0
409 -410 411 412 0
409 -410 411 -412 0
409 -410 -411 412 0
409 -410 -411 -412 0
-409 410 411 412 0
-409 410 411 -412 0
-409 410 -411 412 0
-409 410 -411 -412 0
-409 -410 411 412 0
-409 -410 411 -412 0
-409 -410 -411 412 0
-409 -410 -411 -412 0
